(set-logic ALL)
(declare-fun var0 () String)
(assert (str.in_re var0 (re.++ (re.* (re.+ (str.to_re "000"))) (re.++ (re.* (re.union (str.to_re "1") (str.to_re "2"))) (re.++ (re.union (re.+ (str.to_re "3")) (re.+ (str.to_re "4"))) (re.++ (re.union (re.+ (str.to_re "5")) (re.+ (str.to_re "6"))) (re.++ (re.+ (re.* (str.to_re "777"))) (re.++ (re.union (re.* (str.to_re "888")) (re.* (str.to_re "99"))) (re.++ (re.* (re.* (str.to_re "aa"))) (re.++ (re.union (re.+ (str.to_re "bbb")) (re.+ (str.to_re "c"))) (re.++ (re.union (re.* (str.to_re "ddd")) (re.* (str.to_re "ee"))) (re.++ (re.+ (re.* (str.to_re "fff"))) (re.++ (re.* (re.* (str.to_re "gg"))) (re.++ (re.+ (re.union (str.to_re "h") (str.to_re "i"))) (re.++ (re.union (re.union (str.to_re "j") (str.to_re "kkk")) (re.union (str.to_re "ll") (str.to_re "mmm"))) (re.++ (re.* (re.+ (str.to_re "nnn"))) (re.+ (re.+ (str.to_re "ooo")))))))))))))))))))
(check-sat)